NAME : OMNETRUN
COMMENT : 524.61
TYPE : CVRP
DIMENSION : 21
EDGE_WEIGHT_TYPE : EUC_2D
CAPACITY : 21
NODE_COORD_SECTION
1 0.107093 -0.77924
2 161.681 0.574411
3 95.7378 -1052.21
4 81.0565 -1672.76
5 181.622 -2276.88
6 27.8848 -2773.69
7 190.156 -3167.93
8 57.4671 -3832.53
9 481.027 -919.958
10 318.55 -1407.46
11 571.135 -441.54
12 510.261 -1849.01
13 672.6 -2597.76
14 623.194 -3315.05
15 677.929 -3819.22
16 532.623 -4440.79
17 891.102 -688.887
18 891.344 -1051.88
19 986.905 -1544.29
20 864.017 -2112.82
21 951.772 -4228.85
DEMAND_SECTION
1 0
2 1
3 1
4 1
5 1
6 1
7 1
8 1
9 1
10 1
11 1
12 1
13 1
14 1
15 1
16 1
17 1
18 1
19 1
20 1
21 1
DEPOT_SECTION
1
-1
EOF
